
  22    4
  10   10   10   10

   0   0   0   0   0   8 2 3 4 5 8 9 12 13 
   3  10  10  10  10   4 20 15 7 6 
   8  10  10  10  10   5 20 19 14 11 10 
   4  10  10  10  10   4 20 15 14 6 
   9  10  10  10  10   3 19 11 10 
   3  10  10  10  10   4 19 18 17 16 
   8  10  10  10  10   3 21 18 14 
   1  10  10  10  10   2 17 10 
   8  10  10  10  10   3 21 17 16 
   3  10  10  10  10   2 18 16 
   8  10  10  10  10   2 17 16 
   1  10  10  10  10   2 20 17 
   2  10  10  10  10   2 18 16 
   5  10  10  10  10   1 16 
  10  10  10  10  10   1 16 
   4  10  10  10  10   1 22
  10  10  10  10  10   1 22
   3  10  10  10  10   1 22
   9  10  10  10  10   1 22
   6  10  10  10  10   1 22
   1  10  10  10  10   1 22
   0   0   0   0   0   0 
